(declare-fun temp9417_1 () (_ BitVec 64))
(declare-fun var140390 () (_ BitVec 64))
(declare-fun temp9417_3 () (_ BitVec 64))
(declare-fun temp9417_2 () (_ BitVec 64))
(declare-fun temp9417_4 () (_ BitVec 64))
(declare-fun var2565548 () (_ BitVec 64))
(declare-fun temp9417_5 () (_ BitVec 64))
(declare-fun var2634158 () (_ BitVec 64))
(declare-fun temp9417_7 () (_ BitVec 64))
(declare-fun temp9417_6 () (_ BitVec 64))
(declare-fun temp9417_8 () (_ BitVec 64))
(declare-fun var2634159 () (_ BitVec 64))
(declare-fun temp9417_9 () (_ BitVec 64))
(declare-fun var4137563 () (_ BitVec 64))
(declare-fun temp9417_10 () (_ BitVec 64))
(declare-fun var77802 () (_ BitVec 64))
(declare-fun temp9417_11 () (_ BitVec 64))
(declare-fun var77803 () (_ BitVec 64))
(declare-fun temp9417_12 () (_ BitVec 64))
(assert (= temp9417_1 #x0000000000000000))
(assert (= var140390 temp9417_1))
(assert (= temp9417_3 #xffffffffffffffff))
(assert (= temp9417_2 temp9417_3))
(assert (= temp9417_4 #x0000000000000000))
(assert (= var2565548 temp9417_4))
(assert (= temp9417_5 #x0000000000000000))
(assert (= var2634158 temp9417_5))
(assert (= temp9417_7 #x0000000000000001))
(assert (= temp9417_6 temp9417_7))
(assert (= temp9417_8 #x0000000000000001))
(assert (= var2634159 (bvadd var2634158 temp9417_8)))
(assert (= temp9417_9 #x0000000000000001))
(assert (= var4137563 temp9417_9))
(assert (= temp9417_10 #x0000000000000014))
(assert (= var77802 temp9417_10))
(assert (= temp9417_11 #x0000000000000014))
(assert (= var77803
   (ite (= var77802 temp9417_11) #x0000000000000001 #x0000000000000000)))
(assert (= temp9417_12 #x0000000000000001))
(assert (= var77803 temp9417_12))
(model-add temp9417_1 () (_ BitVec 64) #x0000000000000000)
(model-add var140390 () (_ BitVec 64) #x0000000000000000)
(model-add temp9417_3 () (_ BitVec 64) #xffffffffffffffff)
(model-add temp9417_2 () (_ BitVec 64) #xffffffffffffffff)
(model-add temp9417_4 () (_ BitVec 64) #x0000000000000000)
(model-add var2565548 () (_ BitVec 64) #x0000000000000000)
(model-add temp9417_5 () (_ BitVec 64) #x0000000000000000)
(model-add var2634158 () (_ BitVec 64) #x0000000000000000)
(model-add temp9417_7 () (_ BitVec 64) #x0000000000000001)
(model-add temp9417_6 () (_ BitVec 64) #x0000000000000001)
(model-add temp9417_8 () (_ BitVec 64) #x0000000000000001)
(model-add var2634159 () (_ BitVec 64) #x0000000000000001)
(model-add temp9417_9 () (_ BitVec 64) #x0000000000000001)
(model-add var4137563 () (_ BitVec 64) #x0000000000000001)
(model-add temp9417_10 () (_ BitVec 64) #x0000000000000014)
(model-add var77802 () (_ BitVec 64) #x0000000000000014)
(model-add temp9417_11 () (_ BitVec 64) #x0000000000000014)
(model-add var77803 () (_ BitVec 64) #x0000000000000001)
(model-add temp9417_12 () (_ BitVec 64) #x0000000000000001)

